PARAMETER_FILE = even/even_uncomplete_graph_new/de/par/random137.par
PROBLEM_FILE = even/even_uncomplete_graph_new/de/mat/random137.tsp
Successes/Runs = 0/10
Cost.min = 912, Cost.avg = 912.00, Cost.max = 912
Gap.min = 0.0000%, Gap.avg = 0.0000%, Gap.max = 0.0000%
Trials.min = 1000, Trials.avg = 1000.0, Trials.max = 1000
Time.min = 1.23 sec., Time.avg = 1.57 sec., Time.max = 1.78 sec.
Time.total = 15.76 sec.
